# Created by Octave 5.2.0, Tue Jan 26 23:44:43 2021 CET <danyil@danyil-VirtualBox>
# name: parameters_signal_sin
# type: scalar struct
# ndims: 2
 1 1
# length: 5
# name: amplitude
# type: scalar
3


# name: frequency
# type: scalar
1000


# name: bias
# type: scalar
3


# name: noise
# type: scalar
0


# name: number_of_periods
# type: scalar
2




# name: parameters_signal_square
# type: scalar struct
# ndims: 2
 1 1
# length: 6
# name: amplitude
# type: scalar
3


# name: frequency
# type: scalar
1000


# name: bias
# type: scalar
1


# name: k
# type: scalar
0.69999999999999996


# name: noise
# type: scalar
0


# name: number_of_periods
# type: scalar
2




# name: parameters_signal_triangle
# type: scalar struct
# ndims: 2
 1 1
# length: 5
# name: amplitude
# type: scalar
3


# name: frequency
# type: scalar
1000


# name: bias
# type: scalar
3


# name: noise
# type: scalar
0


# name: number_of_periods
# type: scalar
2




